Problem:    
Rows:       260
Columns:    89 (72 integer, 72 binary)
Non-zeros:  812
Status:     INTEGER OPTIMAL
Objective:  value = 1.606987 (MINimum)

   No.   Row name        Activity     Lower bound   Upper bound
------ ------------    ------------- ------------- -------------
     1 r.5                   1001.61             0               
     2 r.6                  -999.583      -999.602               
     3 r.7                   1.60699             0               
     4 r.8                  0.681365      -997.009               
     5 r.9                   1001.61             0               
     6 r.10                 -998.923      -999.614               
     7 r.11                  1.60699             0               
     8 r.12                  1.07719          -997               
     9 r.13                  1001.61             0               
    10 r.14                 -999.545      -999.962               
    11 r.15                  1.60699             0               
    12 r.16                 0.681365      -998.955               
    13 r.17                  1001.61             0               
    14 r.18                 -999.309      -999.945               
    15 r.19                  1.60699             0               
    16 r.20                  1.07719      -998.459               
    17 r.21                  1001.61             0               
    18 r.22                 -999.364      -999.818               
    19 r.23                  1.60699             0               
    20 r.24                 0.681365      -998.364               
    21 r.25                  1001.61             0               
    22 r.26                 -999.981      -999.981               
    23 r.27                  1.60699             0               
    24 r.28                    0.019      -999.274               
    25 r.29                  1001.61             0               
    26 r.30                 -998.393       -999.47               
    27 r.31                  1.60699             0               
    28 r.32                  1.60699       -998.81               
    29 r.33                  1.60699             0               
    30 r.34                  1.60699      -999.499               
    31 r.35                  1001.61             0               
    32 r.36                 -998.393      -999.074               
    33 r.37                        1             1             = 
    34 r.38                        1             1             = 
    35 r.39                        1             1             = 
    36 r.40                        1             1             = 
    37 r.41                        1             1             = 
    38 r.42                        1             1             = 
    39 r.43                        1             1             = 
    40 r.44                        1             1             = 
    41 r.45                        2             2               
    42 r.46                       -2         -1001               
    43 r.47                  -999.34      -999.614               
    44 r.48                     1000             2               
    45 r.49                    -1000         -1001               
    46 r.50                   2000.4          -997               
    47 r.51                        2             2               
    48 r.52                       -2         -1001               
    49 r.53                 -999.962      -999.962               
    50 r.54                     1000             2               
    51 r.55                    -1000         -1001               
    52 r.56                     2000      -998.955               
    53 r.57                        2             2               
    54 r.58                       -2         -1001               
    55 r.59                 -999.726      -999.945               
    56 r.60                     1000             2               
    57 r.61                    -1000         -1001               
    58 r.62                   2000.4      -998.459               
    59 r.63                        2             2               
    60 r.64                       -2         -1001               
    61 r.65                 -999.781      -999.818               
    62 r.66                     1000             2               
    63 r.67                    -1000         -1001               
    64 r.68                     2000      -998.364               
    65 r.69                 -999.602      -999.602               
    66 r.70                 0.662365      -997.009               
    67 r.71                 -999.602      -999.602               
    68 r.72                 0.662365      -997.009               
    69 r.73                  -998.81       -999.47               
    70 r.74                     1.19       -998.81               
    71 r.75                 -999.074       -999.47               
    72 r.76                 0.925622       -998.81               
    73 r.77                     1.19      -999.499               
    74 r.78                  -998.81      -999.074               
    75 r.79                 0.925622      -999.499               
    76 r.80                 -999.074      -999.074               
    77 r.81                        2             2               
    78 r.82                       -2         -1001               
    79 r.83                   999.34      0.397989               
    80 r.84                     1000             2               
    81 r.85                    -1000         -1001               
    82 r.86                   1999.6       2.99077               
    83 r.87                        2             2               
    84 r.88                       -2         -1001               
    85 r.89                -0.622581      -999.962               
    86 r.90                     1000             2               
    87 r.91                    -1000         -1001               
    88 r.92                   1999.6      -998.955               
    89 r.93                        2             2               
    90 r.94                       -2         -1001               
    91 r.95                -0.385908      -999.945               
    92 r.96                     1000             2               
    93 r.97                    -1000         -1001               
    94 r.98                     2000      -998.459               
    95 r.99                        2             2               
    96 r.100                      -2         -1001               
    97 r.101               -0.440714      -999.818               
    98 r.102                    1000             2               
    99 r.103                   -1000         -1001               
   100 r.104                  1999.6      -998.364               
   101 r.105                -998.942      -999.614               
   102 r.106                 1.05819          -997               
   103 r.107                -998.942      -999.614               
   104 r.108                 1.05819          -997               
   105 r.109                 -999.47       -999.47               
   106 r.110                  0.5298       -998.81               
   107 r.111                 -999.47       -999.47               
   108 r.112                  0.5298       -998.81               
   109 r.113                    1001             2               
   110 r.114                   -1001         -1001               
   111 r.115                 2000.53      -999.499               
   112 r.116                    1001             2               
   113 r.117                   -1001         -1001               
   114 r.118                 2000.53      -999.074               
   115 r.119                       2             2               
   116 r.120                      -2         -1001               
   117 r.121                 999.962      0.397989               
   118 r.122                    1000             2               
   119 r.123                   -1000         -1001               
   120 r.124                    2000       2.99077               
   121 r.125                       2             2               
   122 r.126                      -2         -1001               
   123 r.127                0.622581      0.385908               
   124 r.128                    1000             2               
   125 r.129                   -1000         -1001               
   126 r.130                  2000.4       2.99959               
   127 r.131                       2             2               
   128 r.132                      -2         -1001               
   129 r.133                -999.763      -999.945               
   130 r.134                    1000             2               
   131 r.135                   -1000         -1001               
   132 r.136                  2000.4      -998.459               
   133 r.137                       2             2               
   134 r.138                      -2         -1001               
   135 r.139                -999.818      -999.818               
   136 r.140                    1000             2               
   137 r.141                   -1000         -1001               
   138 r.142                    2000      -998.364               
   139 r.143                -999.564      -999.962               
   140 r.144                0.662365      -998.955               
   141 r.145                -999.564      -999.962               
   142 r.146                0.662365      -998.955               
   143 r.147                -998.848       -999.47               
   144 r.148                 1.15238       -998.81               
   145 r.149                -999.074       -999.47               
   146 r.150                0.925622       -998.81               
   147 r.151                 1.15238      -999.499               
   148 r.152                -998.848      -999.074               
   149 r.153                0.925622      -999.499               
   150 r.154                -999.074      -999.074               
   151 r.155                       2             2               
   152 r.156                      -2         -1001               
   153 r.157                 999.726      0.397989               
   154 r.158                    1000             2               
   155 r.159                   -1000         -1001               
   156 r.160                  1999.6       2.99077               
   157 r.161                       2             2               
   158 r.162                      -2         -1001               
   159 r.163                0.385908      0.385908               
   160 r.164                    1000             2               
   161 r.165                   -1000         -1001               
   162 r.166                    2000       2.99959               
   163 r.167                       2             2               
   164 r.168                      -2         -1001               
   165 r.169                 999.763      0.037617               
   166 r.170                    1000             2               
   167 r.171                   -1000         -1001               
   168 r.172                  1999.6       1.04539               
   169 r.173                       2             2               
   170 r.174                      -2         -1001               
   171 r.175               -0.054806      -999.818               
   172 r.176                    1000             2               
   173 r.177                   -1000         -1001               
   174 r.178                  1999.6      -998.364               
   175 r.179                -999.328      -999.945               
   176 r.180                 1.05819      -998.459               
   177 r.181                -999.328      -999.945               
   178 r.182                 1.05819      -998.459               
   179 r.183                -999.084       -999.47               
   180 r.184                0.915708       -998.81               
   181 r.185                 -999.47       -999.47               
   182 r.186                  0.5298       -998.81               
   183 r.187                    1001             2               
   184 r.188                   -1001         -1001               
   185 r.189                 2000.92      -999.499               
   186 r.190                    1001             2               
   187 r.191                   -1001         -1001               
   188 r.192                 2000.53      -999.074               
   189 r.193                       2             2               
   190 r.194                      -2         -1001               
   191 r.195                 999.781      0.397989               
   192 r.196                    1000             2               
   193 r.197                   -1000         -1001               
   194 r.198                    2000       2.99077               
   195 r.199                       2             2               
   196 r.200                      -2         -1001               
   197 r.201                0.440714      0.385908               
   198 r.202                    1000             2               
   199 r.203                   -1000         -1001               
   200 r.204                  2000.4       2.99959               
   201 r.205                       2             2               
   202 r.206                      -2         -1001               
   203 r.207                 999.818      0.037617               
   204 r.208                    1000             2               
   205 r.209                   -1000         -1001               
   206 r.210                    2000       1.04539               
   207 r.211                       2             2               
   208 r.212                      -2         -1001               
   209 r.213                0.054806      0.054806               
   210 r.214                    1000             2               
   211 r.215                   -1000         -1001               
   212 r.216                  2000.4       1.54103               
   213 r.217                -999.383      -999.818               
   214 r.218                0.662365      -998.364               
   215 r.219                -999.383      -999.818               
   216 r.220                0.662365      -998.364               
   217 r.221                       2             2               
   218 r.222                      -2         -1001               
   219 r.223                -999.029       -999.47               
   220 r.224                    1000             2               
   221 r.225                   -1000         -1001               
   222 r.226                 2000.93       -998.81               
   223 r.227                0.970514      -999.499               
   224 r.228                -999.029      -999.074               
   225 r.229                0.925622      -999.499               
   226 r.230                -999.074      -999.074               
   227 r.231                -998.412       -999.47               
   228 r.232                 1.58799       -998.81               
   229 r.233                -998.412       -999.47               
   230 r.234                 1.58799       -998.81               
   231 r.235                       2             2               
   232 r.236                      -2         -1001               
   233 r.237                 999.029      0.181867               
   234 r.238                    1000             2               
   235 r.239                   -1000         -1001               
   236 r.240                 1999.07       1.63583               
   237 r.241                    1001             2               
   238 r.242                   -1001         -1001               
   239 r.243                    2000      -999.499               
   240 r.244                    1001             2               
   241 r.245                   -1001         -1001               
   242 r.246                    2000      -999.074               
   243 r.247                    1001             2               
   244 r.248                   -1001         -1001               
   245 r.249                 1999.47      0.385908               
   246 r.250                    1001             2               
   247 r.251                   -1001         -1001               
   248 r.252                 1999.47       2.99959               
   249 r.253                    1001             2               
   250 r.254                   -1001         -1001               
   251 r.255                 1999.08      0.054806               
   252 r.256                    1001             2               
   253 r.257                   -1001         -1001               
   254 r.258                 1999.47       1.54103               
   255 r.259                    1001             2               
   256 r.260                   -1001         -1001               
   257 r.261                    2000        0.5298               
   258 r.262                    1001             2               
   259 r.263                   -1001         -1001               
   260 r.264                    2000        1.1902               

   No. Column name       Activity     Lower bound   Upper bound
------ ------------    ------------- ------------- -------------
     1 tt                    1.60699             0               
     2 s_1_1        *              1             0             1 
     3 t_1_1                    1.19             0               
     4 s_2_1        *              0             0             1 
     5 t_2_1                0.925622             0               
     6 s_1_2        *              1             0             1 
     7 t_1_2                  0.5298             0               
     8 s_2_2        *              0             0             1 
     9 t_2_2                  0.5298             0               
    10 s_1_3        *              1             0             1 
    11 t_1_3                 1.15238             0               
    12 s_2_3        *              0             0             1 
    13 t_2_3                0.925622             0               
    14 s_1_4        *              1             0             1 
    15 t_1_4                0.915708             0               
    16 s_2_4        *              0             0             1 
    17 t_2_4                  0.5298             0               
    18 s_1_5        *              1             0             1 
    19 t_1_5                0.970514             0               
    20 s_2_5        *              0             0             1 
    21 t_2_5                0.925622             0               
    22 s_1_6        *              1             0             1 
    23 t_1_6                 1.58799             0               
    24 s_2_6        *              0             0             1 
    25 t_2_6                 1.58799             0               
    26 s_1_7        *              1             0             1 
    27 t_1_7                       0             0               
    28 s_2_7        *              0             0             1 
    29 t_2_7                       0             0               
    30 s_1_8        *              0             0             1 
    31 t_1_8                       0             0               
    32 s_2_8        *              1             0             1 
    33 t_2_8                       0             0               
    34 r_1_1_2      *              0             0             1 
    35 u_1_1_2      *              1             0             1 
    36 r_2_1_2      *              1             0             1 
    37 u_2_1_2      *              0             0             1 
    38 r_1_1_3      *              0             0             1 
    39 u_1_1_3      *              1             0             1 
    40 r_2_1_3      *              1             0             1 
    41 u_2_1_3      *              0             0             1 
    42 r_1_1_4      *              0             0             1 
    43 u_1_1_4      *              1             0             1 
    44 r_2_1_4      *              1             0             1 
    45 u_2_1_4      *              0             0             1 
    46 r_1_1_5      *              0             0             1 
    47 u_1_1_5      *              1             0             1 
    48 r_2_1_5      *              1             0             1 
    49 u_2_1_5      *              0             0             1 
    50 r_1_2_3      *              0             0             1 
    51 u_1_2_3      *              0             0             1 
    52 r_2_2_3      *              1             0             1 
    53 u_2_2_3      *              0             0             1 
    54 r_1_2_4      *              0             0             1 
    55 u_1_2_4      *              0             0             1 
    56 r_2_2_4      *              1             0             1 
    57 u_2_2_4      *              0             0             1 
    58 r_1_2_5      *              0             0             1 
    59 u_1_2_5      *              0             0             1 
    60 r_2_2_5      *              1             0             1 
    61 u_2_2_5      *              0             0             1 
    62 r_1_2_8      *              1             0             1 
    63 u_1_2_8      *              0             0             1 
    64 r_2_2_8      *              1             0             1 
    65 u_2_2_8      *              0             0             1 
    66 r_1_3_4      *              0             0             1 
    67 u_1_3_4      *              1             0             1 
    68 r_2_3_4      *              1             0             1 
    69 u_2_3_4      *              0             0             1 
    70 r_1_3_5      *              0             0             1 
    71 u_1_3_5      *              1             0             1 
    72 r_2_3_5      *              1             0             1 
    73 u_2_3_5      *              0             0             1 
    74 r_1_4_5      *              0             0             1 
    75 u_1_4_5      *              0             0             1 
    76 r_2_4_5      *              1             0             1 
    77 u_2_4_5      *              0             0             1 
    78 r_1_4_8      *              1             0             1 
    79 u_1_4_8      *              0             0             1 
    80 r_2_4_8      *              1             0             1 
    81 u_2_4_8      *              0             0             1 
    82 r_1_5_7      *              0             0             1 
    83 u_1_5_7      *              1             0             1 
    84 r_2_5_7      *              1             0             1 
    85 u_2_5_7      *              0             0             1 
    86 r_1_7_8      *              1             0             1 
    87 u_1_7_8      *              0             0             1 
    88 r_2_7_8      *              1             0             1 
    89 u_2_7_8      *              0             0             1 

Integer feasibility conditions:

KKT.PE: max.abs.err = 0.00e+00 on row 0
        max.rel.err = 0.00e+00 on row 0
        High quality

KKT.PB: max.abs.err = 5.55e-17 on row 159
        max.rel.err = 4.01e-17 on row 159
        High quality

End of output
